WARNING: for repeatability, setting FPU to use double precision
============================[ Problem Statistics ]=============================
|                                                                             |
|  Number of variables:        127091                                         |
|  Number of clauses:          296682                                         |
|  Parse time:                   0.07 s                                       |
|                                                                             |
c ============================[ Search Statistics ]==============================
c | Conflicts |          ORIGINAL         |          LEARNT          | Progress |
c |           |    Vars  Clauses Literals |    Limit  Clauses Lit/Cl |          |
c ===============================================================================
c Switched to VSIDS.
c Switched to LRB.
c Switched to VSIDS.
c Switched to LRB.
c Switched to VSIDS.
c Switched to LRB.
c Switched to VSIDS.
c Switched to LRB.
c Switched to VSIDS.
c Switched to LRB.
c Switched to VSIDS.
c Switched to LRB.
c Switched to VSIDS.
c Switched to LRB.
c Switched to VSIDS.
c Switched to LRB.
c Switched to VSIDS.
c Switched to LRB.
c Switched to VSIDS.
c Switched to LRB.
c Switched to VSIDS.
c Switched to LRB.
c Switched to VSIDS.
c Switched to LRB.
c Switched to VSIDS.
c ===============================================================================
restarts                  : 32108
conflicts                 : 5012444        (2305 /sec)
decisions                 : 46103644       (0.00 % random) (21197 /sec)
propagations              : 4261109463     (1959133 /sec)
conflict literals         : 571893649      (19.66 % deleted)

conflicts w/ DIP found    : 3600069        (71.82 % of conflicts)
conflicts w/ dangerous DIP: 0              (0.00 % of conflicts)
conflicts w/ DIP-learning : 4097           (0.08 % of conflicts)
decisions on ext vars     : 5294           (0.01 % of decisions)
total ext vars            : 637         
tried delete ext vars     : 4           
deleted ext vars          : 4           
max ext vars              : 633         

Memory used               : 483.00 MB
CPU time                  : 2175 s
DIP computation time      : 135.595 s (6.23 % of total time)
ER_sel time               : 8.24829 s
ER_add time               : 0.005463 s
ER_delC time              : 0 s
ER_delV time              : 0.000783 s
ER_sub time               : 10.2486 s
ER_stat time              : 0 s

UNSATISFIABLE
